NAME          ClpDefau
ROWS
 N  OBJROW
 L  R_100_0
 L  R_100_1
 L  R_100_2
 L  R_100_3
 L  R_100_4
 L  R_100_5
 L  R_100_6
 L  R_100_7
COLUMNS
    x_0       OBJROW     -1.           R_100_0   5.          
    x_0       R_100_1   21.            R_100_3   93.         
    x_0       R_100_5   48.            R_100_6   57.         
    x_0       R_100_7   5.          
    x_1       OBJROW     -2.           R_100_1   41.         
    x_1       R_100_3   68.            R_100_4   23.         
    x_1       R_100_5   4.             R_100_6   23.         
    x_1       R_100_7   66.         
    x_2       OBJROW     -2.           R_100_0   66.         
    x_2       R_100_1   24.            R_100_3   54.         
    x_2       R_100_4   98.            R_100_5   76.         
    x_2       R_100_6   58.            R_100_7   97.         
    x_3       OBJROW     -6.           R_100_0   95.         
    x_3       R_100_1   68.            R_100_2   36.         
    x_3       R_100_4   46.            R_100_5   59.         
    x_3       R_100_7   73.         
    x_4       OBJROW     -3.           R_100_0   72.         
    x_4       R_100_1   63.            R_100_2   42.         
    x_4       R_100_6   99.         
    x_5       OBJROW     -5.           R_100_0   91.         
    x_5       R_100_2   65.            R_100_3   76.         
    x_5       R_100_4   94.            R_100_5   66.         
    x_5       R_100_6   88.            R_100_7   10.         
    x_6       OBJROW     -5.           R_100_0   44.         
    x_6       R_100_1   25.            R_100_3   74.         
    x_6       R_100_4   35.            R_100_5   88.         
    x_6       R_100_7   67.         
    x_7       OBJROW     -10.          R_100_0   35.         
    x_7       R_100_1   27.            R_100_3   92.         
    x_7       R_100_4   8.             R_100_5   23.         
    x_7       R_100_6   4.             R_100_7   9.          
RHS
    RHS       R_100_0   323.           R_100_1   325.        
    RHS       R_100_2   413.           R_100_3   322.        
    RHS       R_100_4   367.           R_100_5   352.        
    RHS       R_100_6   336.           R_100_7   424.        
BOUNDS
 UI BOUND     x_0       10.         
 UI BOUND     x_1       10.         
 UI BOUND     x_2       10.         
 UI BOUND     x_3       10.         
 UI BOUND     x_4       10.         
 UI BOUND     x_5       10.         
 UI BOUND     x_6       10.         
 UI BOUND     x_7       10.         
ENDATA
